NAME : rnd42_50.tsp.tsp.opt.tour
TYPE : TOUR
DIMENSION : 50
TOUR_SECTION
1
11
27
38
49
42
13
21
40
37
41
48
43
19
14
20
33
2
16
12
45
7
47
30
8
26
31
39
15
18
5
6
35
32
50
9
36
4
28
44
22
29
23
17
10
25
34
24
3
46
-1